0 1 2
1 2 33
4 3 34
6 5 36
8 7 38
10 9 40
12 11 42
14 13 44
16 15 46
18 17 48
20 19 50
22 21 52
24 23 54
26 25 56
28 27 58
31 29 60
64 30 61
65 32 63
67 35 66
69 37 68
71 39 70
73 41 72
75 43 74
77 45 76
79 47 78
81 49 80
83 51 82
85 53 84
87 55 86
89 57 88
91 59 90
92 62 93
